experiment/data/hgs-res/Vrp-Set-A-n53/Vrp-Set-A-n53-hgs/0.hgs1.vrp
NAME : 0
COMMENT : CVRP Instance
TYPE : CVRP
DIMENSION : 53
EDGE_WEIGHT_TYPE : EUC_2D
CAPACITY : 100
NODE_COORD_SECTION
1	24.0	63.0
2	35.0	60.0
3	79.0	46.0
4	3.0	45.0
5	42.0	50.0
6	3.0	40.0
7	29.0	96.0
8	47.0	30.0
9	54.0	77.0
10	36.0	30.0
11	83.0	86.0
12	30.0	6.0
13	55.0	29.0
14	13.0	2.0
15	1.0	19.0
16	98.0	1.0
17	75.0	10.0
18	39.0	23.0
19	62.0	91.0
20	96.0	9.0
21	27.0	87.0
22	14.0	16.0
23	52.0	49.0
24	95.0	21.0
25	30.0	6.0
26	18.0	40.0
27	82.0	90.0
28	50.0	79.0
29	48.0	49.0
30	82.0	73.0
31	64.0	62.0
32	34.0	78.0
33	83.0	6.0
34	3.0	77.0
35	18.0	8.0
36	53.0	86.0
37	88.0	51.0
38	77.0	51.0
39	58.0	89.0
40	12.0	44.0
41	70.0	88.0
42	36.0	17.0
43	85.0	23.0
44	93.0	30.0
45	68.0	67.0
46	71.0	34.0
47	56.0	73.0
48	37.0	37.0
49	78.0	20.0
50	88.0	69.0
51	95.0	42.0
52	44.0	71.0
53	18.0	1.0
DEMAND_SECTION
1	0
2	2
3	12
4	14
5	2
6	17
7	20
8	2
9	26
10	7
11	24
12	23
13	13
14	25
15	20
16	3
17	18
18	23
19	6
20	2
21	13
22	22
23	3
24	6
25	7
26	1
27	18
28	18
29	10
30	2
31	9
32	10
33	8
34	30
35	16
36	23
37	2
38	18
39	22
40	1
41	8
42	4
43	26
44	21
45	2
46	15
47	25
48	22
49	19
50	3
51	3
52	5
53	13
DEPOT_SECTION
1
-1
EOF
