experiment/data/hgs-res/Vrp-Set-A-n53/Vrp-Set-A-n53-hgs/0.hgs1.log
=========== Algorithm Parameters =================
---- nbGranular        is set to 20
---- mu                is set to 25
---- lambda            is set to 40
---- nbElite           is set to 4
---- nbClose           is set to 5
---- targetFeasible    is set to 0.2
---- seed              is set to 1234
---- nbIter            is set to 20000
---- timeLimit         is set to 0
---- useSwapStar       is set to 1
==================================================
----- READING INSTANCE: baseline_results/cvrp_hgs/Vrp-Set-A-n53/Vrp-Set-A-n53-hgs/0.hgs1.vrp
----- FLEET SIZE WAS NOT SPECIFIED: DEFAULT INITIALIZATION TO 12 VEHICLES
----- INSTANCE SUCCESSFULLY LOADED WITH 52 CLIENTS AND 12 VEHICLES
----- BUILDING INITIAL POPULATION
----- STARTING GENETIC ALGORITHM
It      0      2 | T(s) 0.06 | Feas 36 1012.25 1028.85 | Inf 40 1017.29 1026.36 | Div 0.36 0.32 | Feas 0.60 1.00 | Pen 3.45 0.85
It    500    502 | T(s) 0.27 | Feas 37 1012.25 1020.05 | Inf 46 1010.98 1012.41 | Div 0.31 0.16 | Feas 0.12 1.00 | Pen 2.99 0.38
It   1000   1002 | T(s) 0.44 | Feas 65 1012.25 1016.43 | Inf 64 1009.25 1009.91 | Div 0.21 0.10 | Feas 0.28 1.00 | Pen 2.64 0.17
It   1500   1502 | T(s) 0.61 | Feas 44 1012.25 1018.20 | Inf 38 1009.51 1011.10 | Div 0.28 0.17 | Feas 0.25 1.00 | Pen 2.70 0.10
It   2000   2002 | T(s) 0.78 | Feas 61 1012.25 1016.44 | Inf 63 1009.51 1010.34 | Div 0.24 0.10 | Feas 0.16 1.00 | Pen 2.70 0.10
It   2500   2502 | T(s) 0.95 | Feas 35 1012.25 1018.86 | Inf 46 1009.78 1010.92 | Div 0.30 0.14 | Feas 0.25 1.00 | Pen 2.75 0.10
It   3000   3002 | T(s) 1.12 | Feas 52 1012.25 1017.20 | Inf 38 1010.06 1011.67 | Div 0.25 0.16 | Feas 0.12 1.00 | Pen 2.80 0.10
It   3500   3502 | T(s) 1.28 | Feas 50 1012.25 1016.30 | Inf 51 1008.19 1009.19 | Div 0.25 0.12 | Feas 0.31 1.00 | Pen 2.43 0.10
It   4000   4002 | T(s) 1.45 | Feas 47 1012.25 1017.67 | Inf 50 1010.91 1011.61 | Div 0.26 0.11 | Feas 0.15 1.00 | Pen 2.98 0.10
It   4500   4502 | T(s) 1.61 | Feas 28 1012.25 1022.60 | Inf 57 1009.19 1011.56 | Div 0.35 0.18 | Feas 0.29 1.00 | Pen 2.63 0.10
It   5000   5002 | T(s) 1.78 | Feas 57 1012.25 1015.80 | Inf 36 1007.67 1010.94 | Div 0.22 0.20 | Feas 0.28 1.00 | Pen 2.33 0.10
It   5500   5502 | T(s) 1.96 | Feas 27 1012.25 1024.98 | Inf 37 1010.28 1013.34 | Div 0.38 0.20 | Feas 0.07 1.00 | Pen 2.85 0.10
It   6000   6002 | T(s) 2.12 | Feas 42 1012.25 1017.64 | Inf 56 1008.38 1010.09 | Div 0.29 0.15 | Feas 0.27 1.00 | Pen 2.47 0.10
It   6500   6502 | T(s) 2.29 | Feas 41 1012.25 1017.37 | Inf 31 1008.88 1012.57 | Div 0.27 0.23 | Feas 0.33 1.00 | Pen 2.57 0.10
It   7000   7002 | T(s) 2.46 | Feas 38 1012.25 1017.46 | Inf 36 1009.40 1013.54 | Div 0.28 0.24 | Feas 0.36 1.00 | Pen 2.67 0.10
It   7500   7502 | T(s) 2.62 | Feas 55 1012.25 1015.14 | Inf 51 1009.94 1010.70 | Div 0.21 0.11 | Feas 0.12 1.00 | Pen 2.78 0.10
It   8000   8002 | T(s) 2.79 | Feas 65 1012.25 1014.77 | Inf 30 1008.09 1012.97 | Div 0.16 0.25 | Feas 0.40 1.00 | Pen 2.41 0.10
It   8500   8502 | T(s) 2.96 | Feas 29 1012.25 1020.16 | Inf 51 1008.58 1009.94 | Div 0.34 0.15 | Feas 0.36 1.00 | Pen 2.51 0.10
It   9000   9002 | T(s) 3.13 | Feas 50 1012.25 1016.89 | Inf 47 1011.39 1012.18 | Div 0.25 0.13 | Feas 0.15 1.00 | Pen 3.07 0.10
It   9500   9502 | T(s) 3.30 | Feas 46 1012.25 1018.11 | Inf 62 1009.35 1010.36 | Div 0.27 0.12 | Feas 0.22 1.00 | Pen 2.66 0.10
It  10000  10002 | T(s) 3.47 | Feas 63 1012.25 1014.31 | Inf 26 1007.58 1014.67 | Div 0.17 0.29 | Feas 0.31 1.00 | Pen 2.31 0.10
It  10500  10502 | T(s) 3.63 | Feas 51 1012.25 1018.90 | Inf 63 1010.44 1011.03 | Div 0.26 0.08 | Feas 0.08 1.00 | Pen 2.88 0.10
It  11000  11002 | T(s) 3.80 | Feas 38 1012.25 1017.62 | Inf 49 1008.53 1010.05 | Div 0.29 0.15 | Feas 0.17 1.00 | Pen 2.50 0.10
It  11500  11502 | T(s) 3.97 | Feas 47 1012.25 1015.83 | Inf 26 1009.03 1015.74 | Div 0.23 0.29 | Feas 0.36 1.00 | Pen 2.60 0.10
It  12000  12002 | T(s) 4.13 | Feas 52 1012.25 1017.57 | Inf 61 1009.56 1009.94 | Div 0.26 0.08 | Feas 0.26 1.00 | Pen 2.70 0.10
It  12500  12502 | T(s) 4.30 | Feas 25 1012.25 1023.47 | Inf 48 1009.83 1010.72 | Div 0.37 0.11 | Feas 0.20 1.00 | Pen 2.76 0.10
It  13000  13002 | T(s) 4.47 | Feas 48 1012.25 1017.87 | Inf 30 1010.39 1014.60 | Div 0.27 0.25 | Feas 0.12 1.00 | Pen 2.87 0.10
It  13500  13502 | T(s) 4.64 | Feas 35 1012.25 1018.22 | Inf 40 1008.73 1011.35 | Div 0.31 0.20 | Feas 0.33 1.00 | Pen 2.54 0.10
It  14000  14002 | T(s) 4.81 | Feas 47 1012.25 1016.07 | Inf 34 1009.24 1013.37 | Div 0.23 0.24 | Feas 0.28 1.00 | Pen 2.64 0.10
It  14500  14502 | T(s) 4.99 | Feas 32 1012.25 1021.74 | Inf 28 1012.20 1015.32 | Div 0.34 0.25 | Feas 0.11 1.00 | Pen 3.23 0.10
It  15000  15002 | T(s) 5.15 | Feas 49 1012.25 1015.93 | Inf 37 1007.94 1011.89 | Div 0.24 0.22 | Feas 0.31 1.00 | Pen 2.38 0.10
It  15500  15502 | T(s) 5.32 | Feas 30 1012.25 1018.40 | Inf 65 1010.61 1011.18 | Div 0.31 0.07 | Feas 0.13 1.00 | Pen 2.92 0.10
It  16000  16002 | T(s) 5.49 | Feas 42 1012.25 1019.93 | Inf 62 1010.90 1011.90 | Div 0.30 0.14 | Feas 0.09 1.00 | Pen 2.97 0.10
It  16500  16502 | T(s) 5.66 | Feas 34 1012.25 1020.10 | Inf 31 1008.93 1012.56 | Div 0.32 0.23 | Feas 0.17 1.00 | Pen 2.58 0.10
It  17000  17002 | T(s) 5.83 | Feas 47 1012.25 1017.09 | Inf 61 1011.81 1012.67 | Div 0.26 0.13 | Feas 0.14 1.00 | Pen 3.16 0.10
It  17500  17502 | T(s) 6.00 | Feas 59 1012.25 1015.94 | Inf 27 1007.66 1014.64 | Div 0.22 0.29 | Feas 0.31 1.00 | Pen 2.33 0.10
It  18000  18002 | T(s) 6.18 | Feas 26 1012.25 1020.87 | Inf 58 1008.13 1008.73 | Div 0.36 0.10 | Feas 0.26 1.00 | Pen 2.42 0.10
It  18500  18502 | T(s) 6.34 | Feas 33 1012.25 1018.77 | Inf 41 1008.62 1010.17 | Div 0.31 0.16 | Feas 0.29 1.00 | Pen 2.52 0.10
It  19000  19002 | T(s) 6.51 | Feas 40 1012.25 1016.93 | Inf 43 1011.44 1012.57 | Div 0.27 0.15 | Feas 0.14 1.00 | Pen 3.08 0.10
It  19500  19502 | T(s) 6.67 | Feas 49 1012.25 1014.58 | Inf 50 1009.39 1010.32 | Div 0.19 0.12 | Feas 0.25 1.00 | Pen 2.67 0.10
----- GENETIC ALGORITHM FINISHED AFTER 20000 ITERATIONS. TIME SPENT: 6.8391
----- WRITING BEST SOLUTION IN : baseline_results/cvrp_hgs/Vrp-Set-A-n53/Vrp-Set-A-n53-hgs/0.hgs1.tour
